# LAMMPS input file

boundary p p p
units real
atom_style full
bond_style harmonic
angle_style harmonic
dihedral_style opls
improper_style harmonic

dielectric 80

pair_style lj/cut/tip4p/long 1 2 1 1 0.105 10
kspace_style pppm/tip4p 1e-5
special_bonds lj 0.0 0.0 0.5 coul 0.0 0.0 0.833

region box block -15 15 -15 15 -15 15
create_box 8 box &
	bond/types 5 &
	angle/types 6 &
	dihedral/types 4 &
	extra/bond/per/atom 10 &
	extra/angle/per/atom 10 &
	extra/dihedral/per/atom 10 &
	extra/special/per/atom 10

molecule wat water.mol
molecule eth ethanol.mol

create_atoms 0 single 0 0 0 mol eth 454756

include mass.lammps
include ethanol.parm
include water.parm

group H2O type 1 2
group ETH type 3 4 5 6 7 8

velocity all create 300 48455 mom yes rot yes

delete_atoms overlap 2 H2O H2O mol yes
delete_atoms overlap 2 H2O ETH mol yes

fix myshk H2O shake 1.0e-5 200 0 b 1 a 1 mol wat
fix mynvt all nvt temp 300 300 89786
fix myrct ETH recenter INIT INIT INIT
timestep 1.0

thermo 5000

run 20000

dump mydmp all atom 50 dump.lammpstrj

run 50000
